p tw 160 32801 2 
1 82 
1 83 
1 85 
1 87 
1 90 
1 92 
1 93 
1 96 
1 98 
1 99 
1 101 
1 103 
1 105 
1 107 
1 110 
1 111 
1 113 
1 115 
1 117 
1 119 
1 121 
1 124 
1 126 
1 127 
1 129 
1 131 
1 133 
1 135 
1 138 
1 139 
1 141 
1 143 
1 146 
1 147 
1 149 
1 151 
1 153 
1 155 
1 157 
1 159 
2 81 
2 84 
2 86 
2 88 
2 89 
2 91 
2 94 
2 95 
2 97 
2 100 
2 102 
2 104 
2 106 
2 108 
2 109 
2 112 
2 114 
2 116 
2 118 
2 120 
2 122 
2 123 
2 125 
2 128 
2 130 
2 132 
2 134 
2 136 
2 137 
2 140 
2 142 
2 144 
2 145 
2 148 
2 150 
2 152 
2 154 
2 156 
2 158 
2 160 
3 4 
3 82 
3 84 
3 85 
3 87 
3 90 
3 92 
3 94 
3 96 
3 98 
3 100 
3 102 
3 103 
3 106 
3 108 
3 110 
3 111 
3 114 
3 115 
3 118 
3 119 
3 121 
3 124 
3 126 
3 128 
3 130 
3 132 
3 133 
3 136 
3 138 
3 140 
3 142 
3 144 
3 146 
3 148 
3 150 
3 152 
3 154 
3 155 
3 157 
3 160 
4 81 
4 83 
4 86 
4 88 
4 89 
4 91 
4 93 
4 95 
4 97 
4 99 
4 101 
4 104 
4 105 
4 107 
4 109 
4 112 
4 113 
4 116 
4 117 
4 120 
4 122 
4 123 
4 125 
4 127 
4 129 
4 131 
4 134 
4 135 
4 137 
4 139 
4 141 
4 143 
4 145 
4 147 
4 149 
4 151 
4 153 
4 156 
4 158 
4 159 
5 6 
5 81 
5 83 
5 85 
5 87 
5 90 
5 92 
5 94 
5 96 
5 98 
5 100 
5 102 
5 104 
5 106 
5 107 
5 109 
5 111 
5 114 
5 115 
5 118 
5 120 
5 122 
5 123 
5 125 
5 127 
5 130 
5 131 
5 134 
5 136 
5 137 
5 139 
5 141 
5 143 
5 146 
5 147 
5 149 
5 152 
5 154 
5 155 
5 158 
5 159 
6 82 
6 84 
6 86 
6 88 
6 89 
6 91 
6 93 
6 95 
6 97 
6 99 
6 101 
6 103 
6 105 
6 108 
6 110 
6 112 
6 113 
6 116 
6 117 
6 119 
6 121 
6 124 
6 126 
6 128 
6 129 
6 132 
6 133 
6 135 
6 138 
6 140 
6 142 
6 144 
6 145 
6 148 
6 150 
6 151 
6 153 
6 156 
6 157 
6 160 
7 8 
7 82 
7 83 
7 86 
7 88 
7 89 
7 91 
7 94 
7 96 
7 97 
7 99 
7 102 
7 104 
7 106 
7 107 
7 110 
7 111 
7 113 
7 115 
7 118 
7 119 
7 121 
7 123 
7 126 
7 128 
7 129 
7 131 
7 134 
7 135 
7 137 
7 140 
7 141 
7 143 
7 146 
7 148 
7 150 
7 152 
7 153 
7 155 
7 158 
7 160 
8 81 
8 84 
8 85 
8 87 
8 90 
8 92 
8 93 
8 95 
8 98 
8 100 
8 101 
8 103 
8 105 
8 108 
8 109 
8 112 
8 114 
8 116 
8 117 
8 120 
8 122 
8 124 
8 125 
8 127 
8 130 
8 132 
8 133 
8 136 
8 138 
8 139 
8 142 
8 144 
8 145 
8 147 
8 149 
8 151 
8 154 
8 156 
8 157 
8 159 
9 10 
9 82 
9 84 
9 86 
9 87 
9 89 
9 91 
9 94 
9 95 
9 98 
9 99 
9 101 
9 104 
9 106 
9 108 
9 109 
9 111 
9 114 
9 116 
9 117 
9 120 
9 121 
9 124 
9 126 
9 127 
9 129 
9 132 
9 134 
9 135 
9 137 
9 139 
9 141 
9 144 
9 146 
9 147 
9 149 
9 152 
9 154 
9 155 
9 157 
9 160 
10 81 
10 83 
10 85 
10 88 
10 90 
10 92 
10 93 
10 96 
10 97 
10 100 
10 102 
10 103 
10 105 
10 107 
10 110 
10 112 
10 113 
10 115 
10 118 
10 119 
10 122 
10 123 
10 125 
10 128 
10 130 
10 131 
10 133 
10 136 
10 138 
10 140 
10 142 
10 143 
10 145 
10 148 
10 150 
10 151 
10 153 
10 156 
10 158 
10 159 
11 12 
11 82 
11 83 
11 86 
11 87 
11 90 
11 92 
11 94 
11 95 
11 97 
11 100 
11 101 
11 103 
11 105 
11 107 
11 109 
11 112 
11 114 
11 116 
11 118 
11 119 
11 121 
11 124 
11 125 
11 128 
11 129 
11 131 
11 134 
11 135 
11 137 
11 139 
11 142 
11 144 
11 146 
11 148 
11 150 
11 151 
11 154 
11 155 
11 158 
11 159 
12 81 
12 84 
12 85 
12 88 
12 89 
12 91 
12 93 
12 96 
12 98 
12 99 
12 102 
12 104 
12 106 
12 108 
12 110 
12 111 
12 113 
12 115 
12 117 
12 120 
12 122 
12 123 
12 126 
12 127 
12 130 
12 132 
12 133 
12 136 
12 138 
12 140 
12 141 
12 143 
12 145 
12 147 
12 149 
12 152 
12 153 
12 156 
12 157 
12 160 
13 14 
13 81 
13 84 
13 85 
13 88 
13 90 
13 91 
13 94 
13 96 
13 98 
13 100 
13 102 
13 104 
13 105 
13 107 
13 109 
13 111 
13 114 
13 116 
13 117 
13 120 
13 121 
13 124 
13 126 
13 128 
13 129 
13 132 
13 133 
13 135 
13 137 
13 140 
13 142 
13 143 
13 145 
13 147 
13 150 
13 151 
13 153 
13 155 
13 158 
13 159 
14 82 
14 83 
14 86 
14 87 
14 89 
14 92 
14 93 
14 95 
14 97 
14 99 
14 101 
14 103 
14 106 
14 108 
14 110 
14 112 
14 113 
14 115 
14 118 
14 119 
14 122 
14 123 
14 125 
14 127 
14 130 
14 131 
14 134 
14 136 
14 138 
14 139 
14 141 
14 144 
14 146 
14 148 
14 149 
14 152 
14 154 
14 156 
14 157 
14 160 
15 16 
15 82 
15 83 
15 86 
15 87 
15 89 
15 92 
15 94 
15 95 
15 98 
15 100 
15 102 
15 103 
15 105 
15 108 
15 110 
15 111 
15 113 
15 116 
15 117 
15 120 
15 121 
15 124 
15 125 
15 128 
15 130 
15 131 
15 133 
15 136 
15 137 
15 139 
15 141 
15 143 
15 145 
15 147 
15 150 
15 152 
15 153 
15 156 
15 158 
15 160 
16 81 
16 84 
16 85 
16 88 
16 90 
16 91 
16 93 
16 96 
16 97 
16 99 
16 101 
16 104 
16 106 
16 107 
16 109 
16 112 
16 114 
16 115 
16 118 
16 119 
16 122 
16 123 
16 126 
16 127 
16 129 
16 132 
16 134 
16 135 
16 138 
16 140 
16 142 
16 144 
16 146 
16 148 
16 149 
16 151 
16 154 
16 155 
16 157 
16 159 
17 18 
17 82 
17 83 
17 85 
17 88 
17 89 
17 92 
17 94 
17 96 
17 97 
17 99 
17 102 
17 103 
17 105 
17 108 
17 109 
17 112 
17 114 
17 116 
17 118 
17 120 
17 122 
17 123 
17 126 
17 128 
17 129 
17 131 
17 133 
17 135 
17 138 
17 139 
17 142 
17 143 
17 145 
17 147 
17 149 
17 152 
17 154 
17 155 
17 157 
17 160 
18 81 
18 84 
18 86 
18 87 
18 90 
18 91 
18 93 
18 95 
18 98 
18 100 
18 101 
18 104 
18 106 
18 107 
18 110 
18 111 
18 113 
18 115 
18 117 
18 119 
18 121 
18 124 
18 125 
18 127 
18 130 
18 132 
18 134 
18 136 
18 137 
18 140 
18 141 
18 144 
18 146 
18 148 
18 150 
18 151 
18 153 
18 156 
18 158 
18 159 
19 20 
19 81 
19 84 
19 85 
19 87 
19 89 
19 92 
19 93 
19 95 
19 98 
19 100 
19 102 
19 103 
19 106 
19 107 
19 110 
19 112 
19 113 
19 116 
19 117 
19 119 
19 122 
19 124 
19 126 
19 127 
19 129 
19 131 
19 134 
19 135 
19 137 
19 140 
19 142 
19 143 
19 145 
19 148 
19 149 
19 152 
19 154 
19 155 
19 158 
19 160 
20 82 
20 83 
20 86 
20 88 
20 90 
20 91 
20 94 
20 96 
20 97 
20 99 
20 101 
20 104 
20 105 
20 108 
20 109 
20 111 
20 114 
20 115 
20 118 
20 120 
20 121 
20 123 
20 125 
20 128 
20 130 
20 132 
20 133 
20 136 
20 138 
20 139 
20 141 
20 144 
20 146 
20 147 
20 150 
20 151 
20 153 
20 156 
20 157 
20 159 
21 22 
21 81 
21 84 
21 86 
21 88 
21 89 
21 91 
21 93 
21 96 
21 98 
21 100 
21 102 
21 103 
21 105 
21 108 
21 109 
21 111 
21 113 
21 115 
21 118 
21 120 
21 122 
21 124 
21 125 
21 127 
21 129 
21 131 
21 133 
21 135 
21 138 
21 139 
21 141 
21 144 
21 146 
21 148 
21 150 
21 151 
21 154 
21 155 
21 158 
21 160 
22 82 
22 83 
22 85 
22 87 
22 90 
22 92 
22 94 
22 95 
22 97 
22 99 
22 101 
22 104 
22 106 
22 107 
22 110 
22 112 
22 114 
22 116 
22 117 
22 119 
22 121 
22 123 
22 126 
22 128 
22 130 
22 132 
22 134 
22 136 
22 137 
22 140 
22 142 
22 143 
22 145 
22 147 
22 149 
22 152 
22 153 
22 156 
22 157 
22 159 
23 24 
23 82 
23 83 
23 86 
23 88 
23 90 
23 91 
23 93 
23 95 
23 98 
23 100 
23 102 
23 103 
23 105 
23 108 
23 109 
23 112 
23 114 
23 115 
23 117 
23 120 
23 121 
23 123 
23 126 
23 127 
23 130 
23 131 
23 134 
23 136 
23 137 
23 140 
23 142 
23 143 
23 146 
23 148 
23 149 
23 151 
23 153 
23 155 
23 157 
23 160 
24 81 
24 84 
24 85 
24 87 
24 89 
24 92 
24 94 
24 96 
24 97 
24 99 
24 101 
24 104 
24 106 
24 107 
24 110 
24 111 
24 113 
24 116 
24 118 
24 119 
24 122 
24 124 
24 125 
24 128 
24 129 
24 132 
24 133 
24 135 
24 138 
24 139 
24 141 
24 144 
24 145 
24 147 
24 150 
24 152 
24 154 
24 156 
24 158 
24 159 
25 26 
25 81 
25 83 
25 85 
25 87 
25 89 
25 92 
25 94 
25 95 
25 97 
25 99 
25 102 
25 104 
25 105 
25 107 
25 109 
25 112 
25 113 
25 116 
25 118 
25 120 
25 121 
25 124 
25 126 
25 127 
25 130 
25 132 
25 133 
25 136 
25 138 
25 140 
25 141 
25 144 
25 146 
25 148 
25 149 
25 151 
25 153 
25 155 
25 158 
25 160 
26 82 
26 84 
26 86 
26 88 
26 90 
26 91 
26 93 
26 96 
26 98 
26 100 
26 101 
26 103 
26 106 
26 108 
26 110 
26 111 
26 114 
26 115 
26 117 
26 119 
26 122 
26 123 
26 125 
26 128 
26 129 
26 131 
26 134 
26 135 
26 137 
26 139 
26 142 
26 143 
26 145 
26 147 
26 150 
26 152 
26 154 
26 156 
26 157 
26 159 
27 28 
27 81 
27 83 
27 85 
27 87 
27 89 
27 91 
27 93 
27 96 
27 98 
27 99 
27 102 
27 104 
27 105 
27 108 
27 109 
27 112 
27 114 
27 116 
27 117 
27 119 
27 121 
27 124 
27 125 
27 128 
27 130 
27 131 
27 134 
27 135 
27 138 
27 140 
27 141 
27 143 
27 146 
27 148 
27 150 
27 152 
27 154 
27 156 
27 157 
27 159 
28 82 
28 84 
28 86 
28 88 
28 90 
28 92 
28 94 
28 95 
28 97 
28 100 
28 101 
28 103 
28 106 
28 107 
28 110 
28 111 
28 113 
28 115 
28 118 
28 120 
28 122 
28 123 
28 126 
28 127 
28 129 
28 132 
28 133 
28 136 
28 137 
28 139 
28 142 
28 144 
28 145 
28 147 
28 149 
28 151 
28 153 
28 155 
28 158 
28 160 
29 30 
29 81 
29 83 
29 85 
29 88 
29 90 
29 91 
29 93 
29 95 
29 98 
29 99 
29 101 
29 103 
29 106 
29 107 
29 110 
29 112 
29 114 
29 116 
29 118 
29 120 
29 122 
29 124 
29 125 
29 128 
29 129 
29 132 
29 133 
29 136 
29 137 
29 139 
29 141 
29 143 
29 146 
29 148 
29 150 
29 152 
29 153 
29 155 
29 157 
29 160 
30 82 
30 84 
30 86 
30 87 
30 89 
30 92 
30 94 
30 96 
30 97 
30 100 
30 102 
30 104 
30 105 
30 108 
30 109 
30 111 
30 113 
30 115 
30 117 
30 119 
30 121 
30 123 
30 126 
30 127 
30 130 
30 131 
30 134 
30 135 
30 138 
30 140 
30 142 
30 144 
30 145 
30 147 
30 149 
30 151 
30 154 
30 156 
30 158 
30 159 
31 32 
31 81 
31 83 
31 86 
31 87 
31 90 
31 92 
31 93 
31 95 
31 97 
31 100 
31 102 
31 104 
31 105 
31 108 
31 110 
31 111 
31 114 
31 116 
31 118 
31 119 
31 122 
31 123 
31 126 
31 127 
31 129 
31 132 
31 133 
31 135 
31 137 
31 140 
31 141 
31 143 
31 146 
31 147 
31 150 
31 151 
31 154 
31 156 
31 157 
31 160 
32 82 
32 84 
32 85 
32 88 
32 89 
32 91 
32 94 
32 96 
32 98 
32 99 
32 101 
32 103 
32 106 
32 107 
32 109 
32 112 
32 113 
32 115 
32 117 
32 120 
32 121 
32 124 
32 125 
32 128 
32 130 
32 131 
32 134 
32 136 
32 138 
32 139 
32 142 
32 144 
32 145 
32 148 
32 149 
32 152 
32 153 
32 155 
32 158 
32 159 
33 34 
33 82 
33 84 
33 85 
33 88 
33 90 
33 91 
33 93 
33 95 
33 97 
33 99 
33 102 
33 103 
33 106 
33 107 
33 109 
33 111 
33 114 
33 116 
33 118 
33 119 
33 121 
33 124 
33 126 
33 127 
33 130 
33 131 
33 134 
33 136 
33 138 
33 139 
33 141 
33 143 
33 145 
33 147 
33 150 
33 151 
33 154 
33 156 
33 158 
33 160 
34 81 
34 83 
34 86 
34 87 
34 89 
34 92 
34 94 
34 96 
34 98 
34 100 
34 101 
34 104 
34 105 
34 108 
34 110 
34 112 
34 113 
34 115 
34 117 
34 120 
34 122 
34 123 
34 125 
34 128 
34 129 
34 132 
34 133 
34 135 
34 137 
34 140 
34 142 
34 144 
34 146 
34 148 
34 149 
34 152 
34 153 
34 155 
34 157 
34 159 
35 36 
35 82 
35 83 
35 85 
35 88 
35 90 
35 92 
35 93 
35 96 
35 97 
35 100 
35 102 
35 104 
35 106 
35 108 
35 109 
35 111 
35 113 
35 116 
35 117 
35 119 
35 122 
35 124 
35 125 
35 128 
35 130 
35 132 
35 134 
35 135 
35 137 
35 139 
35 141 
35 144 
35 145 
35 148 
35 149 
35 151 
35 153 
35 155 
35 157 
35 160 
36 81 
36 84 
36 86 
36 87 
36 89 
36 91 
36 94 
36 95 
36 98 
36 99 
36 101 
36 103 
36 105 
36 107 
36 110 
36 112 
36 114 
36 115 
36 118 
36 120 
36 121 
36 123 
36 126 
36 127 
36 129 
36 131 
36 133 
36 136 
36 138 
36 140 
36 142 
36 143 
36 146 
36 147 
36 150 
36 152 
36 154 
36 156 
36 158 
36 159 
37 38 
37 82 
37 84 
37 85 
37 87 
37 89 
37 91 
37 94 
37 96 
37 97 
37 100 
37 102 
37 103 
37 106 
37 107 
37 110 
37 112 
37 114 
37 116 
37 117 
37 120 
37 122 
37 123 
37 126 
37 127 
37 130 
37 131 
37 133 
37 135 
37 137 
37 139 
37 141 
37 144 
37 146 
37 148 
37 150 
37 151 
37 153 
37 156 
37 157 
37 159 
38 81 
38 83 
38 86 
38 88 
38 90 
38 92 
38 93 
38 95 
38 98 
38 99 
38 101 
38 104 
38 105 
38 108 
38 109 
38 111 
38 113 
38 115 
38 118 
38 119 
38 121 
38 124 
38 125 
38 128 
38 129 
38 132 
38 134 
38 136 
38 138 
38 140 
38 142 
38 143 
38 145 
38 147 
38 149 
38 152 
38 154 
38 155 
38 158 
38 160 
39 40 
39 81 
39 83 
39 86 
39 88 
39 90 
39 91 
39 94 
39 96 
39 97 
39 99 
39 101 
39 103 
39 105 
39 108 
39 110 
39 111 
39 114 
39 116 
39 117 
39 119 
39 122 
39 124 
39 126 
39 127 
39 130 
39 131 
39 133 
39 136 
39 137 
39 140 
39 141 
39 144 
39 145 
39 148 
39 149 
39 152 
39 154 
39 155 
39 158 
39 159 
40 82 
40 84 
40 85 
40 87 
40 89 
40 92 
40 93 
40 95 
40 98 
40 100 
40 102 
40 104 
40 106 
40 107 
40 109 
40 112 
40 113 
40 115 
40 118 
40 120 
40 121 
40 123 
40 125 
40 128 
40 129 
40 132 
40 134 
40 135 
40 138 
40 139 
40 142 
40 143 
40 146 
40 147 
40 150 
40 151 
40 153 
40 156 
40 157 
40 160 
41 42 
41 82 
41 83 
41 86 
41 88 
41 90 
41 92 
41 94 
41 96 
41 98 
41 99 
41 102 
41 104 
41 106 
41 108 
41 110 
41 112 
41 113 
41 116 
41 117 
41 120 
41 122 
41 124 
41 126 
41 127 
41 129 
41 132 
41 134 
41 136 
41 138 
41 139 
41 142 
41 143 
41 146 
41 148 
41 150 
41 151 
41 154 
41 156 
41 158 
41 159 
42 81 
42 84 
42 85 
42 87 
42 89 
42 91 
42 93 
42 95 
42 97 
42 100 
42 101 
42 103 
42 105 
42 107 
42 109 
42 111 
42 114 
42 115 
42 118 
42 119 
42 121 
42 123 
42 125 
42 128 
42 130 
42 131 
42 133 
42 135 
42 137 
42 140 
42 141 
42 144 
42 145 
42 147 
42 149 
42 152 
42 153 
42 155 
42 157 
42 160 
43 44 
43 81 
43 84 
43 86 
43 87 
43 90 
43 91 
43 94 
43 95 
43 97 
43 99 
43 102 
43 103 
43 106 
43 108 
43 110 
43 111 
43 113 
43 116 
43 118 
43 120 
43 122 
43 124 
43 125 
43 128 
43 130 
43 131 
43 134 
43 135 
43 138 
43 140 
43 142 
43 143 
43 146 
43 147 
43 149 
43 151 
43 153 
43 155 
43 157 
43 159 
44 82 
44 83 
44 85 
44 88 
44 89 
44 92 
44 93 
44 96 
44 98 
44 100 
44 101 
44 104 
44 105 
44 107 
44 109 
44 112 
44 114 
44 115 
44 117 
44 119 
44 121 
44 123 
44 126 
44 127 
44 129 
44 132 
44 133 
44 136 
44 137 
44 139 
44 141 
44 144 
44 145 
44 148 
44 150 
44 152 
44 154 
44 156 
44 158 
44 160 
45 46 
45 81 
45 83 
45 86 
45 88 
45 89 
45 92 
45 93 
45 95 
45 98 
45 99 
45 102 
45 104 
45 106 
45 107 
45 110 
45 111 
45 114 
45 115 
45 118 
45 120 
45 121 
45 124 
45 126 
45 128 
45 130 
45 131 
45 133 
45 135 
45 137 
45 139 
45 142 
45 144 
45 145 
45 148 
45 149 
45 151 
45 154 
45 156 
45 157 
45 159 
46 82 
46 84 
46 85 
46 87 
46 90 
46 91 
46 94 
46 96 
46 97 
46 100 
46 101 
46 103 
46 105 
46 108 
46 109 
46 112 
46 113 
46 116 
46 117 
46 119 
46 122 
46 123 
46 125 
46 127 
46 129 
46 132 
46 134 
46 136 
46 138 
46 140 
46 141 
46 143 
46 146 
46 147 
46 150 
46 152 
46 153 
46 155 
46 158 
46 160 
47 48 
47 82 
47 84 
47 86 
47 87 
47 89 
47 92 
47 93 
47 96 
47 98 
47 99 
47 101 
47 103 
47 105 
47 107 
47 109 
47 111 
47 113 
47 116 
47 118 
47 120 
47 122 
47 123 
47 126 
47 128 
47 130 
47 132 
47 134 
47 136 
47 137 
47 140 
47 141 
47 143 
47 145 
47 148 
47 150 
47 151 
47 154 
47 155 
47 157 
47 159 
48 81 
48 83 
48 85 
48 88 
48 90 
48 91 
48 94 
48 95 
48 97 
48 100 
48 102 
48 104 
48 106 
48 108 
48 110 
48 112 
48 114 
48 115 
48 117 
48 119 
48 121 
48 124 
48 125 
48 127 
48 129 
48 131 
48 133 
48 135 
48 138 
48 139 
48 142 
48 144 
48 146 
48 147 
48 149 
48 152 
48 153 
48 156 
48 158 
48 160 
49 50 
49 82 
49 84 
49 86 
49 88 
49 90 
49 92 
49 93 
49 96 
49 98 
49 100 
49 101 
49 104 
49 105 
49 107 
49 110 
49 112 
49 114 
49 116 
49 118 
49 120 
49 122 
49 124 
49 126 
49 128 
49 130 
49 131 
49 134 
49 135 
49 138 
49 140 
49 141 
49 144 
49 146 
49 147 
49 149 
49 152 
49 153 
49 156 
49 158 
49 160 
50 81 
50 83 
50 85 
50 87 
50 89 
50 91 
50 94 
50 95 
50 97 
50 99 
50 102 
50 103 
50 106 
50 108 
50 109 
50 111 
50 113 
50 115 
50 117 
50 119 
50 121 
50 123 
50 125 
50 127 
50 129 
50 132 
50 133 
50 136 
50 137 
50 139 
50 142 
50 143 
50 145 
50 148 
50 150 
50 151 
50 154 
50 155 
50 157 
50 159 
51 52 
51 81 
51 84 
51 86 
51 88 
51 89 
51 92 
51 94 
51 95 
51 97 
51 100 
51 102 
51 103 
51 105 
51 107 
51 109 
51 111 
51 114 
51 115 
51 117 
51 119 
51 122 
51 124 
51 126 
51 128 
51 129 
51 132 
51 134 
51 136 
51 138 
51 139 
51 141 
51 143 
51 146 
51 148 
51 149 
51 152 
51 153 
51 156 
51 157 
51 159 
52 82 
52 83 
52 85 
52 87 
52 90 
52 91 
52 93 
52 96 
52 98 
52 99 
52 101 
52 104 
52 106 
52 108 
52 110 
52 112 
52 113 
52 116 
52 118 
52 120 
52 121 
52 123 
52 125 
52 127 
52 130 
52 131 
52 133 
52 135 
52 137 
52 140 
52 142 
52 144 
52 145 
52 147 
52 150 
52 151 
52 154 
52 155 
52 158 
52 160 
53 54 
53 82 
53 83 
53 85 
53 87 
53 90 
53 91 
53 94 
53 95 
53 98 
53 99 
53 102 
53 103 
53 105 
53 107 
53 110 
53 111 
53 114 
53 115 
53 117 
53 120 
53 122 
53 123 
53 125 
53 128 
53 129 
53 132 
53 134 
53 135 
53 138 
53 140 
53 141 
53 144 
53 145 
53 148 
53 149 
53 151 
53 154 
53 156 
53 158 
53 160 
54 81 
54 84 
54 86 
54 88 
54 89 
54 92 
54 93 
54 96 
54 97 
54 100 
54 101 
54 104 
54 106 
54 108 
54 109 
54 112 
54 113 
54 116 
54 118 
54 119 
54 121 
54 124 
54 126 
54 127 
54 130 
54 131 
54 133 
54 136 
54 137 
54 139 
54 142 
54 143 
54 146 
54 147 
54 150 
54 152 
54 153 
54 155 
54 157 
54 159 
55 56 
55 82 
55 84 
55 86 
55 88 
55 90 
55 91 
55 94 
55 95 
55 98 
55 100 
55 102 
55 104 
55 105 
55 107 
55 110 
55 112 
55 113 
55 116 
55 118 
55 119 
55 121 
55 123 
55 125 
55 127 
55 130 
55 132 
55 133 
55 135 
55 138 
55 139 
55 141 
55 143 
55 145 
55 148 
55 149 
55 152 
55 154 
55 155 
55 157 
55 159 
56 81 
56 83 
56 85 
56 87 
56 89 
56 92 
56 93 
56 96 
56 97 
56 99 
56 101 
56 103 
56 106 
56 108 
56 109 
56 111 
56 114 
56 115 
56 117 
56 120 
56 122 
56 124 
56 126 
56 128 
56 129 
56 131 
56 134 
56 136 
56 137 
56 140 
56 142 
56 144 
56 146 
56 147 
56 150 
56 151 
56 153 
56 156 
56 158 
56 160 
57 58 
57 81 
57 83 
57 86 
57 88 
57 89 
57 92 
57 94 
57 96 
57 97 
57 100 
57 101 
57 103 
57 106 
57 107 
57 110 
57 112 
57 114 
57 115 
57 117 
57 120 
57 121 
57 124 
57 125 
57 127 
57 130 
57 132 
57 134 
57 135 
57 138 
57 140 
57 141 
57 143 
57 145 
57 147 
57 150 
57 151 
57 154 
57 155 
57 157 
57 160 
58 82 
58 84 
58 85 
58 87 
58 90 
58 91 
58 93 
58 95 
58 98 
58 99 
58 102 
58 104 
58 105 
58 108 
58 109 
58 111 
58 113 
58 116 
58 118 
58 119 
58 122 
58 123 
58 126 
58 128 
58 129 
58 131 
58 133 
58 136 
58 137 
58 139 
58 142 
58 144 
58 146 
58 148 
58 149 
58 152 
58 153 
58 156 
58 158 
58 159 
59 60 
59 82 
59 83 
59 85 
59 88 
59 89 
59 91 
59 94 
59 95 
59 98 
59 100 
59 101 
59 103 
59 106 
59 108 
59 109 
59 112 
59 113 
59 115 
59 118 
59 119 
59 122 
59 124 
59 126 
59 128 
59 130 
59 132 
59 133 
59 135 
59 137 
59 140 
59 141 
59 143 
59 146 
59 147 
59 149 
59 151 
59 154 
59 156 
59 158 
59 159 
60 81 
60 84 
60 86 
60 87 
60 90 
60 92 
60 93 
60 96 
60 97 
60 99 
60 102 
60 104 
60 105 
60 107 
60 110 
60 111 
60 114 
60 116 
60 117 
60 120 
60 121 
60 123 
60 125 
60 127 
60 129 
60 131 
60 134 
60 136 
60 138 
60 139 
60 142 
60 144 
60 145 
60 148 
60 150 
60 152 
60 153 
60 155 
60 157 
60 160 
61 62 
61 82 
61 83 
61 85 
61 87 
61 89 
61 91 
61 93 
61 95 
61 97 
61 100 
61 101 
61 104 
61 105 
61 108 
61 110 
61 111 
61 114 
61 115 
61 118 
61 120 
61 122 
61 124 
61 126 
61 127 
61 130 
61 132 
61 134 
61 135 
61 138 
61 139 
61 142 
61 143 
61 145 
61 148 
61 150 
61 152 
61 153 
61 155 
61 158 
61 159 
62 81 
62 84 
62 86 
62 88 
62 90 
62 92 
62 94 
62 96 
62 98 
62 99 
62 102 
62 103 
62 106 
62 107 
62 109 
62 112 
62 113 
62 116 
62 117 
62 119 
62 121 
62 123 
62 125 
62 128 
62 129 
62 131 
62 133 
62 136 
62 137 
62 140 
62 141 
62 144 
62 146 
62 147 
62 149 
62 151 
62 154 
62 156 
62 157 
62 160 
63 64 
63 82 
63 84 
63 86 
63 87 
63 90 
63 92 
63 93 
63 96 
63 97 
63 99 
63 102 
63 103 
63 106 
63 108 
63 109 
63 112 
63 114 
63 115 
63 118 
63 120 
63 121 
63 124 
63 125 
63 127 
63 129 
63 132 
63 133 
63 135 
63 137 
63 140 
63 141 
63 143 
63 145 
63 148 
63 149 
63 152 
63 153 
63 156 
63 158 
63 159 
64 81 
64 83 
64 85 
64 88 
64 89 
64 91 
64 94 
64 95 
64 98 
64 100 
64 101 
64 104 
64 105 
64 107 
64 110 
64 111 
64 113 
64 116 
64 117 
64 119 
64 122 
64 123 
64 126 
64 128 
64 130 
64 131 
64 134 
64 136 
64 138 
64 139 
64 142 
64 144 
64 146 
64 147 
64 150 
64 151 
64 154 
64 155 
64 157 
64 160 
65 66 
65 82 
65 83 
65 85 
65 88 
65 89 
65 91 
65 93 
65 96 
65 97 
65 100 
65 102 
65 103 
65 105 
65 107 
65 110 
65 111 
65 113 
65 116 
65 118 
65 120 
65 121 
65 124 
65 125 
65 127 
65 129 
65 132 
65 134 
65 136 
65 137 
65 140 
65 142 
65 144 
65 146 
65 147 
65 149 
65 152 
65 154 
65 156 
65 157 
65 159 
66 81 
66 84 
66 86 
66 87 
66 90 
66 92 
66 94 
66 95 
66 98 
66 99 
66 101 
66 104 
66 106 
66 108 
66 109 
66 112 
66 114 
66 115 
66 117 
66 119 
66 122 
66 123 
66 126 
66 128 
66 130 
66 131 
66 133 
66 135 
66 138 
66 139 
66 141 
66 143 
66 145 
66 148 
66 150 
66 151 
66 153 
66 155 
66 158 
66 160 
67 68 
67 81 
67 83 
67 85 
67 88 
67 90 
67 92 
67 94 
67 95 
67 98 
67 100 
67 101 
67 103 
67 106 
67 108 
67 109 
67 111 
67 113 
67 116 
67 118 
67 120 
67 121 
67 123 
67 126 
67 127 
67 129 
67 131 
67 134 
67 135 
67 138 
67 140 
67 141 
67 144 
67 145 
67 148 
67 150 
67 152 
67 153 
67 156 
67 157 
67 159 
68 82 
68 84 
68 86 
68 87 
68 89 
68 91 
68 93 
68 96 
68 97 
68 99 
68 102 
68 104 
68 105 
68 107 
68 110 
68 112 
68 114 
68 115 
68 117 
68 119 
68 122 
68 124 
68 125 
68 128 
68 130 
68 132 
68 133 
68 136 
68 137 
68 139 
68 142 
68 143 
68 146 
68 147 
68 149 
68 151 
68 154 
68 155 
68 158 
68 160 
69 70 
69 81 
69 83 
69 86 
69 87 
69 90 
69 91 
69 94 
69 96 
69 98 
69 99 
69 102 
69 103 
69 105 
69 107 
69 109 
69 112 
69 113 
69 115 
69 118 
69 119 
69 122 
69 124 
69 126 
69 127 
69 130 
69 132 
69 134 
69 135 
69 137 
69 139 
69 142 
69 144 
69 145 
69 147 
69 150 
69 152 
69 153 
69 156 
69 157 
69 160 
70 82 
70 84 
70 85 
70 88 
70 89 
70 92 
70 93 
70 95 
70 97 
70 100 
70 101 
70 104 
70 106 
70 108 
70 110 
70 111 
70 114 
70 116 
70 117 
70 120 
70 121 
70 123 
70 125 
70 128 
70 129 
70 131 
70 133 
70 136 
70 138 
70 140 
70 141 
70 143 
70 146 
70 148 
70 149 
70 151 
70 154 
70 155 
70 158 
70 159 
71 72 
71 81 
71 84 
71 85 
71 88 
71 90 
71 92 
71 93 
71 95 
71 97 
71 99 
71 102 
71 103 
71 105 
71 108 
71 110 
71 112 
71 113 
71 115 
71 117 
71 120 
71 121 
71 123 
71 126 
71 128 
71 130 
71 132 
71 134 
71 135 
71 137 
71 139 
71 141 
71 144 
71 146 
71 147 
71 150 
71 152 
71 154 
71 155 
71 158 
71 159 
72 82 
72 83 
72 86 
72 87 
72 89 
72 91 
72 94 
72 96 
72 98 
72 100 
72 101 
72 104 
72 106 
72 107 
72 109 
72 111 
72 114 
72 116 
72 118 
72 119 
72 122 
72 124 
72 125 
72 127 
72 129 
72 131 
72 133 
72 136 
72 138 
72 140 
72 142 
72 143 
72 145 
72 148 
72 149 
72 151 
72 153 
72 156 
72 157 
72 160 
73 74 
73 82 
73 84 
73 85 
73 88 
73 89 
73 92 
73 94 
73 95 
73 98 
73 99 
73 102 
73 104 
73 105 
73 108 
73 110 
73 112 
73 114 
73 115 
73 118 
73 119 
73 122 
73 124 
73 125 
73 127 
73 129 
73 131 
73 134 
73 136 
73 137 
73 140 
73 141 
73 144 
73 145 
73 147 
73 150 
73 151 
73 153 
73 155 
73 157 
73 159 
74 81 
74 83 
74 86 
74 87 
74 90 
74 91 
74 93 
74 96 
74 97 
74 100 
74 101 
74 103 
74 106 
74 107 
74 109 
74 111 
74 113 
74 116 
74 117 
74 120 
74 121 
74 123 
74 126 
74 128 
74 130 
74 132 
74 133 
74 135 
74 138 
74 139 
74 142 
74 143 
74 146 
74 148 
74 149 
74 152 
74 154 
74 156 
74 158 
74 160 
75 76 
75 81 
75 84 
75 85 
75 87 
75 90 
75 91 
75 94 
75 96 
75 97 
75 100 
75 101 
75 104 
75 105 
75 108 
75 110 
75 112 
75 113 
75 115 
75 118 
75 120 
75 121 
75 124 
75 126 
75 128 
75 129 
75 131 
75 134 
75 136 
75 137 
75 139 
75 141 
75 143 
75 145 
75 148 
75 149 
75 151 
75 154 
75 156 
75 157 
75 160 
76 82 
76 83 
76 86 
76 88 
76 89 
76 92 
76 93 
76 95 
76 98 
76 99 
76 102 
76 103 
76 106 
76 107 
76 109 
76 111 
76 114 
76 116 
76 117 
76 119 
76 122 
76 123 
76 125 
76 127 
76 130 
76 132 
76 133 
76 135 
76 138 
76 140 
76 142 
76 144 
76 146 
76 147 
76 150 
76 152 
76 153 
76 155 
76 158 
76 159 
77 78 
77 82 
77 84 
77 85 
77 88 
77 90 
77 92 
77 94 
77 95 
77 97 
77 99 
77 101 
77 104 
77 105 
77 107 
77 109 
77 111 
77 113 
77 115 
77 117 
77 120 
77 122 
77 124 
77 125 
77 127 
77 130 
77 131 
77 133 
77 135 
77 137 
77 140 
77 142 
77 143 
77 146 
77 148 
77 150 
77 152 
77 154 
77 156 
77 157 
77 160 
78 81 
78 83 
78 86 
78 87 
78 89 
78 91 
78 93 
78 96 
78 98 
78 100 
78 102 
78 103 
78 106 
78 108 
78 110 
78 112 
78 114 
78 116 
78 118 
78 119 
78 121 
78 123 
78 126 
78 128 
78 129 
78 132 
78 134 
78 136 
78 138 
78 139 
78 141 
78 144 
78 145 
78 147 
78 149 
78 151 
78 153 
78 155 
78 158 
78 159 
79 80 
79 81 
79 84 
79 85 
79 88 
79 89 
79 92 
79 94 
79 96 
79 98 
79 99 
79 101 
79 103 
79 105 
79 108 
79 110 
79 111 
79 114 
79 116 
79 118 
79 119 
79 121 
79 123 
79 125 
79 127 
79 130 
79 132 
79 134 
79 135 
79 137 
79 139 
79 142 
79 143 
79 146 
79 148 
79 149 
79 151 
79 153 
79 156 
79 158 
79 160 
80 82 
80 83 
80 86 
80 87 
80 90 
80 91 
80 93 
80 95 
80 97 
80 100 
80 102 
80 104 
80 106 
80 107 
80 109 
80 112 
80 113 
80 115 
80 117 
80 120 
80 122 
80 124 
80 126 
80 128 
80 129 
80 131 
80 133 
80 136 
80 138 
80 140 
80 141 
80 144 
80 145 
80 147 
80 150 
80 152 
80 154 
80 155 
80 157 
80 159 
81 82 
83 84 
85 86 
87 88 
89 90 
91 92 
93 94 
95 96 
97 98 
99 100 
101 102 
103 104 
105 106 
107 108 
109 110 
111 112 
113 114 
115 116 
117 118 
119 120 
121 122 
123 124 
125 126 
127 128 
129 130 
131 132 
133 134 
135 136 
137 138 
139 140 
141 142 
143 144 
145 146 
147 148 
149 150 
151 152 
153 154 
155 156 
157 158 
159 160 
